n_res = 6;
rcap = [8, 11, 9, 6, 61, 40];
rtype = [1, 1, 1, 1, 2, 2];
n_tasks = 16;
modes = [ {1, 2, 3}, {4, 5, 6}, {7, 8, 9}, {10, 11, 12}, {13, 14, 15}, {16, 17, 18}, {19, 20, 21}, {22, 23, 24}, {25, 26, 27}, {28, 29, 30}, {31, 32, 33}, {34, 35, 36}, {37, 38, 39}, {40, 41, 42}, {43, 44, 45}, {46, 47, 48} ];
succ = [ {10, 13, 14}, {4, 5, 11}, {5, 7, 8}, {6, 7}, {10, 13, 14}, {9, 15}, {10, 12, 13}, {15}, {12, 16}, {15, 16}, {12}, {14}, {16}, {}, {}, {} ];
n_opt = 48;
dur = [6, 8, 9, 8, 9, 10, 1, 2, 4, 1, 4, 5, 3, 3, 7, 3, 5, 9, 2, 8, 9, 1, 3, 10, 4, 5, 8, 2, 6, 9, 7, 7, 9, 4, 6, 8, 7, 7, 7, 2, 3, 4, 5, 6, 9, 3, 3, 10];
rreq = [|  8,  0,  4, 10,  0,  8,  5,  0,  0,  0,  8,  7,  0,  2,  2,  0,  8,  0,  0,  9,  0,  4,  2,  2,  7,  7,  0,  0,  0, 10,  0,  3,  0,  0,  2,  0,  9,  9,  0,  0,  5,  0, 10,  9,  0,  5,  0,  8
        |  2,  1,  1,  7,  2,  0,  0,  5,  4,  3,  0,  3,  3,  0,  0,  5,  5,  0,  0,  0,  8,  7,  0,  4,  9,  9,  6,  0,  0,  0, 10,  0, 10,  6,  0,  0,  6,  6,  6,  0,  0,  5,  0,  0,  7,  6,  6,  0
        |  3,  0,  0,  0,  3,  0,  0,  0,  5,  0,  0,  0,  0,  0,  0,  6,  0,  6,  9,  4,  2,  0,  0,  0,  0,  0,  0,  9,  7,  3,  0,  0,  3,  7,  0,  6,  7,  8,  0,  0,  5,  2,  0,  0,  7,  0,  0,  0
        |  0, 10,  0,  0,  8,  4,  4,  0,  0,  6,  0,  4,  0,  1,  0,  0, 10,  3,  8,  7,  0,  0,  4,  4,  0,  2,  0,  0,  0,  0,  5,  0,  0,  3,  0,  2,  4,  0,  0,  8,  8,  0, 10,  9,  0,  0,  4,  0
        |  8,  0,  0,  9,  0,  6,  0,  0,  0,  6,  0,  3,  0,  0,  9,  0,  7,  0,  5,  5,  5,  4,  0,  2,  0,  0,  8,  0,  0,  8,  6,  6,  2,  7,  7,  5,  0,  5,  6,  9,  0,  0,  3,  0,  3,  9,  8,  5
        |  0,  8,  4,  0,  8,  0,  6,  5,  2,  0,  9,  0,  4,  3,  0,  4,  0,  3,  0,  0,  0,  0,  9,  0,  9,  6,  0,  7,  6,  0,  0,  0,  0,  0,  0,  0,  2,  0,  0,  0,  4,  4,  0,  8,  0,  0,  0,  0 |];
